% File represents an instance of a Composite Structure problem to be solved by a CP framework
% Created on 2025-03-26 10:41:26.172
T = 58;
n = 16;
m = 24;
edges = [(1, 2),
(5, 6),
(9, 10),
(13, 14),
(3, 2),
(7, 6),
(11, 10),
(15, 14),
(4, 3),
(8, 7),
(12, 11),
(15, 16),
(1, 5),
(5, 9),
(13, 9),
(2, 6),
(6, 10),
(14, 10),
(3, 7),
(11, 7),
(15, 11),
(4, 8),
(12, 8),
(12, 16)];
counts = [|18, 10, 18, 10,
|18, 6, 18, 10,
|18, 8, 18, 10,
|18, 12, 18, 10,
|18, 10, 18, 8,
|18, 4, 18, 8,
|18, 6, 18, 8,
|18, 10, 18, 10,
|18, 4, 18, 8,
|18, 4, 18, 6,
|18, 6, 18, 10,
|18, 10, 18, 12,
|18, 10, 18, 8,
|18, 8, 18, 6,
|18, 10, 18, 10,
|18, 10, 18, 8|];
